(set-logic QF_LIA)
(declare-fun x0 () Int)
(declare-fun x1 () Int)
(declare-fun x2 () Int)
(declare-fun x3 () Int)
(declare-fun x4 () Int)
(declare-fun x5 () Int)
(declare-fun x6 () Int)
(declare-fun x7 () Int)
(declare-fun x8 () Int)
(declare-fun x9 () Int)
(declare-fun A0 () Bool)
(declare-fun A1 () Bool)
(declare-fun A2 () Bool)
(declare-fun A3 () Bool)
(declare-fun A4 () Bool)
(declare-fun A5 () Bool)
(declare-fun A6 () Bool)
(declare-fun A7 () Bool)
(declare-fun A8 () Bool)
(declare-fun A9 () Bool)
(assert (let ((.def_0 (* (- 1) x3))) (let ((.def_1 (< .def_0 1))) (let ((.def_2 (or A2 .def_1))) (let ((.def_3 (not A7))) (let ((.def_4 (not A4))) (let ((.def_5 (or .def_4 .def_3))) (let ((.def_6 (not .def_5))) (let ((.def_7 (or .def_6 .def_2))) (let ((.def_8 (* (- 1) x5))) (let ((.def_9 (* (- 1) x7))) (let ((.def_10 (+ .def_9 .def_8))) (let ((.def_11 (< .def_10 1))) (let ((.def_12 (not A5))) (let ((.def_13 (and .def_12 .def_11))) (let ((.def_14 (< .def_8 (- 1)))) (let ((.def_15 (not .def_14))) (let ((.def_16 (and .def_4 .def_15))) (let ((.def_17 (not .def_16))) (let ((.def_18 (and .def_17 .def_13))) (let ((.def_19 (not .def_18))) (let ((.def_20 (or .def_19 .def_7))) (let ((.def_21 (* 1 x6))) (let ((.def_22 (* 1 x2))) (let ((.def_23 (+ .def_22 .def_21))) (let ((.def_24 (< .def_23 (- 1)))) (let ((.def_25 (or A0 .def_24))) (let ((.def_26 (not .def_25))) (let ((.def_27 (and A5 A6))) (let ((.def_28 (not .def_27))) (let ((.def_29 (or .def_28 .def_26))) (let ((.def_30 (not A6))) (let ((.def_31 (and A5 .def_30))) (let ((.def_32 (* 1 x8))) (let ((.def_33 (< .def_32 (- 1)))) (let ((.def_34 (not .def_33))) (let ((.def_35 (* 1 x0))) (let ((.def_36 (< .def_35 1))) (let ((.def_37 (not .def_36))) (let ((.def_38 (or .def_37 .def_34))) (let ((.def_39 (and .def_38 .def_31))) (let ((.def_40 (not .def_39))) (let ((.def_41 (and .def_40 .def_29))) (let ((.def_42 (and .def_41 .def_20))) (let ((.def_43 (not .def_42))) (let ((.def_44 (and A5 A8))) (let ((.def_45 (* 1 x5))) (let ((.def_46 (< .def_45 (- 1)))) (let ((.def_47 (not .def_46))) (let ((.def_48 (* (- 1) x4))) (let ((.def_49 (+ .def_48 .def_0))) (let ((.def_50 (< .def_49 1))) (let ((.def_51 (or .def_50 .def_47))) (let ((.def_52 (and .def_51 .def_44))) (let ((.def_53 (not .def_52))) (let ((.def_54 (* 1 x3))) (let ((.def_55 (+ .def_54 .def_21))) (let ((.def_56 (< .def_55 (- 1)))) (let ((.def_57 (not .def_56))) (let ((.def_58 (not A0))) (let ((.def_59 (or .def_58 .def_57))) (let ((.def_60 (not .def_59))) (let ((.def_61 (not A3))) (let ((.def_62 (* (- 1) x0))) (let ((.def_63 (* (- 1) x2))) (let ((.def_64 (+ .def_63 .def_62))) (let ((.def_65 (< .def_64 1))) (let ((.def_66 (not .def_65))) (let ((.def_67 (and .def_66 .def_61))) (let ((.def_68 (and .def_67 .def_60))) (let ((.def_69 (not .def_68))) (let ((.def_70 (and .def_69 .def_53))) (let ((.def_71 (not .def_70))) (let ((.def_72 (* (- 1) x6))) (let ((.def_73 (+ .def_54 .def_72))) (let ((.def_74 (< .def_73 (- 1)))) (let ((.def_75 (not .def_74))) (let ((.def_76 (or .def_75 A7))) (let ((.def_77 (< .def_63 (- 1)))) (let ((.def_78 (or .def_77 A2))) (let ((.def_79 (or .def_78 .def_76))) (let ((.def_80 (not .def_79))) (let ((.def_81 (< .def_21 (- 1)))) (let ((.def_82 (and .def_81 .def_77))) (let ((.def_83 (* (- 1) x8))) (let ((.def_84 (< .def_83 1))) (let ((.def_85 (or .def_12 .def_84))) (let ((.def_86 (and .def_85 .def_82))) (let ((.def_87 (not .def_86))) (let ((.def_88 (and .def_87 .def_80))) (let ((.def_89 (not .def_88))) (let ((.def_90 (or .def_89 .def_71))) (let ((.def_91 (not .def_90))) (let ((.def_92 (or .def_91 .def_43))) (let ((.def_93 (not .def_92))) (let ((.def_94 (and A8 A6))) (let ((.def_95 (< .def_45 1))) (let ((.def_96 (not .def_95))) (let ((.def_97 (< .def_63 1))) (let ((.def_98 (not .def_97))) (let ((.def_99 (or .def_98 .def_96))) (let ((.def_100 (and .def_99 .def_94))) (let ((.def_101 (not A9))) (let ((.def_102 (+ .def_35 .def_8))) (let ((.def_103 (< .def_102 1))) (let ((.def_104 (or .def_103 .def_101))) (let ((.def_105 (not .def_104))) (let ((.def_106 (not A1))) (let ((.def_107 (* 1 x9))) (let ((.def_108 (+ .def_72 .def_107))) (let ((.def_109 (< .def_108 1))) (let ((.def_110 (not .def_109))) (let ((.def_111 (and .def_110 .def_106))) (let ((.def_112 (or .def_111 .def_105))) (let ((.def_113 (or .def_112 .def_100))) (let ((.def_114 (= A8 .def_3))) (let ((.def_115 (not .def_114))) (let ((.def_116 (* 1 x4))) (let ((.def_117 (< .def_116 (- 1)))) (let ((.def_118 (and .def_117 A2))) (let ((.def_119 (not .def_118))) (let ((.def_120 (= .def_119 .def_115))) (let ((.def_121 (not A2))) (let ((.def_122 (and .def_121 A2))) (let ((.def_123 (not .def_122))) (let ((.def_124 (* 1 x7))) (let ((.def_125 (< .def_124 (- 1)))) (let ((.def_126 (not .def_125))) (let ((.def_127 (or .def_4 .def_126))) (let ((.def_128 (or .def_127 .def_123))) (let ((.def_129 (and .def_128 .def_120))) (let ((.def_130 (or .def_129 .def_113))) (let ((.def_131 (not .def_130))) (let ((.def_132 (or .def_12 A2))) (let ((.def_133 (+ .def_83 .def_124))) (let ((.def_134 (< .def_133 (- 1)))) (let ((.def_135 (or A8 .def_134))) (let ((.def_136 (not .def_135))) (let ((.def_137 (and .def_136 .def_132))) (let ((.def_138 (* (- 1) x1))) (let ((.def_139 (< .def_138 1))) (let ((.def_140 (or .def_12 .def_139))) (let ((.def_141 (or A4 .def_58))) (let ((.def_142 (and .def_141 .def_140))) (let ((.def_143 (not .def_142))) (let ((.def_144 (or .def_143 .def_137))) (let ((.def_145 (not .def_144))) (let ((.def_146 (+ .def_45 .def_48))) (let ((.def_147 (< .def_146 (- 1)))) (let ((.def_148 (or .def_147 A3))) (let ((.def_149 (or .def_37 A7))) (let ((.def_150 (or .def_149 .def_148))) (let ((.def_151 (not .def_150))) (let ((.def_152 (* (- 1) x9))) (let ((.def_153 (+ .def_32 .def_152))) (let ((.def_154 (< .def_153 1))) (let ((.def_155 (not .def_154))) (let ((.def_156 (+ .def_45 .def_83))) (let ((.def_157 (< .def_156 (- 1)))) (let ((.def_158 (and .def_157 .def_155))) (let ((.def_159 (not .def_158))) (let ((.def_160 (+ .def_54 .def_9))) (let ((.def_161 (< .def_160 (- 1)))) (let ((.def_162 (= .def_61 .def_161))) (let ((.def_163 (not .def_162))) (let ((.def_164 (and .def_163 .def_159))) (let ((.def_165 (or .def_164 .def_151))) (let ((.def_166 (or .def_165 .def_145))) (let ((.def_167 (and .def_166 .def_131))) (let ((.def_168 (and .def_167 .def_93))) (let ((.def_169 (* 1 x1))) (let ((.def_170 (+ .def_8 .def_169))) (let ((.def_171 (< .def_170 (- 1)))) (let ((.def_172 (not .def_171))) (let ((.def_173 (and .def_4 .def_172))) (let ((.def_174 (< .def_54 (- 1)))) (let ((.def_175 (+ .def_124 .def_72))) (let ((.def_176 (< .def_175 1))) (let ((.def_177 (not .def_176))) (let ((.def_178 (= .def_177 .def_174))) (let ((.def_179 (not .def_178))) (let ((.def_180 (= .def_179 .def_173))) (let ((.def_181 (not .def_180))) (let ((.def_182 (+ .def_54 .def_63))) (let ((.def_183 (< .def_182 1))) (let ((.def_184 (not .def_183))) (let ((.def_185 (or A8 .def_184))) (let ((.def_186 (+ .def_83 .def_54))) (let ((.def_187 (< .def_186 (- 1)))) (let ((.def_188 (not .def_187))) (let ((.def_189 (= .def_188 A2))) (let ((.def_190 (not .def_189))) (let ((.def_191 (= .def_190 .def_185))) (let ((.def_192 (not .def_191))) (let ((.def_193 (or .def_192 .def_181))) (let ((.def_194 (not .def_193))) (let ((.def_195 (or .def_3 A5))) (let ((.def_196 (not .def_195))) (let ((.def_197 (or .def_101 .def_101))) (let ((.def_198 (= .def_197 .def_196))) (let ((.def_199 (not .def_198))) (let ((.def_200 (or A1 A2))) (let ((.def_201 (< .def_133 1))) (let ((.def_202 (< .def_83 (- 1)))) (let ((.def_203 (not .def_202))) (let ((.def_204 (and .def_203 .def_201))) (let ((.def_205 (not .def_204))) (let ((.def_206 (and .def_205 .def_200))) (let ((.def_207 (= .def_206 .def_199))) (let ((.def_208 (not .def_207))) (let ((.def_209 (or .def_208 .def_194))) (let ((.def_210 (not .def_209))) (let ((.def_211 (+ .def_9 .def_63))) (let ((.def_212 (< .def_211 (- 1)))) (let ((.def_213 (not .def_212))) (let ((.def_214 (and A1 .def_213))) (let ((.def_215 (not .def_214))) (let ((.def_216 (+ .def_45 .def_54))) (let ((.def_217 (< .def_216 (- 1)))) (let ((.def_218 (= .def_12 .def_217))) (let ((.def_219 (not .def_218))) (let ((.def_220 (and .def_219 .def_215))) (let ((.def_221 (+ .def_32 .def_107))) (let ((.def_222 (< .def_221 1))) (let ((.def_223 (< .def_21 1))) (let ((.def_224 (and .def_223 .def_222))) (let ((.def_225 (not .def_224))) (let ((.def_226 (+ .def_124 .def_8))) (let ((.def_227 (< .def_226 1))) (let ((.def_228 (or .def_227 .def_4))) (let ((.def_229 (and .def_228 .def_225))) (let ((.def_230 (or .def_229 .def_220))) (let ((.def_231 (< .def_138 (- 1)))) (let ((.def_232 (and A5 .def_231))) (let ((.def_233 (+ .def_169 .def_9))) (let ((.def_234 (< .def_233 1))) (let ((.def_235 (< .def_22 1))) (let ((.def_236 (and .def_235 .def_234))) (let ((.def_237 (not .def_236))) (let ((.def_238 (and .def_237 .def_232))) (let ((.def_239 (+ .def_107 .def_22))) (let ((.def_240 (< .def_239 (- 1)))) (let ((.def_241 (and .def_240 .def_3))) (let ((.def_242 (not .def_241))) (let ((.def_243 (or A5 .def_121))) (let ((.def_244 (not .def_243))) (let ((.def_245 (= .def_244 .def_242))) (let ((.def_246 (not .def_245))) (let ((.def_247 (and .def_246 .def_238))) (let ((.def_248 (and .def_247 .def_230))) (let ((.def_249 (and .def_248 .def_210))) (let ((.def_250 (not .def_223))) (let ((.def_251 (+ .def_63 .def_45))) (let ((.def_252 (< .def_251 1))) (let ((.def_253 (or .def_252 .def_250))) (let ((.def_254 (not .def_253))) (let ((.def_255 (+ .def_9 .def_21))) (let ((.def_256 (< .def_255 (- 1)))) (let ((.def_257 (not .def_256))) (let ((.def_258 (+ .def_9 .def_62))) (let ((.def_259 (< .def_258 (- 1)))) (let ((.def_260 (and .def_259 .def_257))) (let ((.def_261 (or .def_260 .def_254))) (let ((.def_262 (+ .def_9 .def_48))) (let ((.def_263 (< .def_262 (- 1)))) (let ((.def_264 (or .def_263 A1))) (let ((.def_265 (not .def_264))) (let ((.def_266 (and .def_3 A4))) (let ((.def_267 (not .def_266))) (let ((.def_268 (and .def_267 .def_265))) (let ((.def_269 (not .def_268))) (let ((.def_270 (or .def_269 .def_261))) (let ((.def_271 (< .def_108 (- 1)))) (let ((.def_272 (not .def_271))) (let ((.def_273 (or .def_272 .def_96))) (let ((.def_274 (not .def_273))) (let ((.def_275 (+ .def_124 .def_138))) (let ((.def_276 (< .def_275 (- 1)))) (let ((.def_277 (not .def_276))) (let ((.def_278 (and .def_12 .def_277))) (let ((.def_279 (or .def_278 .def_274))) (let ((.def_280 (not .def_279))) (let ((.def_281 (< .def_275 1))) (let ((.def_282 (+ .def_107 .def_32))) (let ((.def_283 (< .def_282 1))) (let ((.def_284 (and .def_283 .def_281))) (let ((.def_285 (not .def_284))) (let ((.def_286 (< .def_62 1))) (let ((.def_287 (not .def_286))) (let ((.def_288 (and .def_121 .def_287))) (let ((.def_289 (not .def_288))) (let ((.def_290 (and .def_289 .def_285))) (let ((.def_291 (and .def_290 .def_280))) (let ((.def_292 (and .def_291 .def_270))) (let ((.def_293 (not .def_292))) (let ((.def_294 (and A8 A7))) (let ((.def_295 (+ .def_48 .def_8))) (let ((.def_296 (< .def_295 (- 1)))) (let ((.def_297 (and .def_12 .def_296))) (let ((.def_298 (or .def_297 .def_294))) (let ((.def_299 (not .def_298))) (let ((.def_300 (and .def_4 A7))) (let ((.def_301 (not A8))) (let ((.def_302 (and .def_301 .def_30))) (let ((.def_303 (or .def_302 .def_300))) (let ((.def_304 (not .def_303))) (let ((.def_305 (= .def_304 .def_299))) (let ((.def_306 (or .def_121 .def_4))) (let ((.def_307 (and .def_33 A8))) (let ((.def_308 (and .def_307 .def_306))) (let ((.def_309 (and .def_61 .def_250))) (let ((.def_310 (+ .def_48 .def_45))) (let ((.def_311 (< .def_310 (- 1)))) (let ((.def_312 (or .def_311 A7))) (let ((.def_313 (not .def_312))) (let ((.def_314 (and .def_313 .def_309))) (let ((.def_315 (or .def_314 .def_308))) (let ((.def_316 (not .def_315))) (let ((.def_317 (and .def_316 .def_305))) (let ((.def_318 (not .def_317))) (let ((.def_319 (and .def_318 .def_293))) (let ((.def_320 (= .def_319 .def_249))) (let ((.def_321 (not .def_320))) (let ((.def_322 (or .def_321 .def_168))) (let ((.def_323 (< .def_9 1))) (let ((.def_324 (not .def_323))) (let ((.def_325 (or A4 .def_324))) (let ((.def_326 (not .def_325))) (let ((.def_327 (or A6 A8))) (let ((.def_328 (and .def_327 .def_326))) (let ((.def_329 (< .def_152 (- 1)))) (let ((.def_330 (not .def_329))) (let ((.def_331 (+ .def_72 .def_0))) (let ((.def_332 (< .def_331 1))) (let ((.def_333 (= .def_332 .def_330))) (let ((.def_334 (not .def_333))) (let ((.def_335 (or A0 A1))) (let ((.def_336 (not .def_335))) (let ((.def_337 (and .def_336 .def_334))) (let ((.def_338 (and .def_337 .def_328))) (let ((.def_339 (not .def_338))) (let ((.def_340 (+ .def_48 .def_22))) (let ((.def_341 (< .def_340 (- 1)))) (let ((.def_342 (= .def_341 .def_15))) (let ((.def_343 (or .def_3 .def_58))) (let ((.def_344 (and .def_343 .def_342))) (let ((.def_345 (< .def_22 (- 1)))) (let ((.def_346 (or .def_345 .def_47))) (let ((.def_347 (< .def_233 (- 1)))) (let ((.def_348 (not .def_347))) (let ((.def_349 (+ .def_83 .def_116))) (let ((.def_350 (< .def_349 1))) (let ((.def_351 (or .def_350 .def_348))) (let ((.def_352 (and .def_351 .def_346))) (let ((.def_353 (not .def_352))) (let ((.def_354 (= .def_353 .def_344))) (let ((.def_355 (= .def_354 .def_339))) (let ((.def_356 (or A1 A0))) (let ((.def_357 (not .def_356))) (let ((.def_358 (or A5 A3))) (let ((.def_359 (or .def_358 .def_357))) (let ((.def_360 (not .def_359))) (let ((.def_361 (and A2 .def_106))) (let ((.def_362 (not .def_361))) (let ((.def_363 (+ .def_169 .def_35))) (let ((.def_364 (< .def_363 (- 1)))) (let ((.def_365 (< .def_169 (- 1)))) (let ((.def_366 (or .def_365 .def_364))) (let ((.def_367 (not .def_366))) (let ((.def_368 (or .def_367 .def_362))) (let ((.def_369 (= .def_368 .def_360))) (let ((.def_370 (not .def_369))) (let ((.def_371 (and A3 A0))) (let ((.def_372 (< .def_221 (- 1)))) (let ((.def_373 (not .def_372))) (let ((.def_374 (and .def_33 .def_373))) (let ((.def_375 (= .def_374 .def_371))) (let ((.def_376 (+ .def_48 .def_72))) (let ((.def_377 (< .def_376 1))) (let ((.def_378 (or A8 .def_377))) (let ((.def_379 (not .def_378))) (let ((.def_380 (and .def_58 A1))) (let ((.def_381 (not .def_380))) (let ((.def_382 (or .def_381 .def_379))) (let ((.def_383 (not .def_382))) (let ((.def_384 (and .def_383 .def_375))) (let ((.def_385 (and .def_384 .def_370))) (let ((.def_386 (not .def_385))) (let ((.def_387 (and .def_386 .def_355))) (let ((.def_388 (not .def_387))) (let ((.def_389 (+ .def_72 .def_169))) (let ((.def_390 (< .def_389 1))) (let ((.def_391 (< .def_107 1))) (let ((.def_392 (not .def_391))) (let ((.def_393 (or .def_392 .def_390))) (let ((.def_394 (not .def_393))) (let ((.def_395 (or A5 A0))) (let ((.def_396 (not .def_395))) (let ((.def_397 (and .def_396 .def_394))) (let ((.def_398 (not .def_397))) (let ((.def_399 (not .def_345))) (let ((.def_400 (= A1 .def_399))) (let ((.def_401 (not .def_400))) (let ((.def_402 (or .def_96 .def_250))) (let ((.def_403 (or .def_402 .def_401))) (let ((.def_404 (not .def_403))) (let ((.def_405 (and .def_404 .def_398))) (let ((.def_406 (or A6 A6))) (let ((.def_407 (+ .def_8 .def_124))) (let ((.def_408 (< .def_407 1))) (let ((.def_409 (+ .def_124 .def_107))) (let ((.def_410 (< .def_409 (- 1)))) (let ((.def_411 (not .def_410))) (let ((.def_412 (and .def_411 .def_408))) (let ((.def_413 (not .def_412))) (let ((.def_414 (or .def_413 .def_406))) (let ((.def_415 (not .def_414))) (let ((.def_416 (and .def_391 .def_101))) (let ((.def_417 (not .def_416))) (let ((.def_418 (or .def_121 A8))) (let ((.def_419 (= .def_418 .def_417))) (let ((.def_420 (and .def_419 .def_415))) (let ((.def_421 (and .def_420 .def_405))) (let ((.def_422 (+ .def_124 .def_48))) (let ((.def_423 (< .def_422 (- 1)))) (let ((.def_424 (or .def_36 .def_423))) (let ((.def_425 (not .def_424))) (let ((.def_426 (or .def_12 .def_392))) (let ((.def_427 (not .def_426))) (let ((.def_428 (and .def_427 .def_425))) (let ((.def_429 (not .def_428))) (let ((.def_430 (+ .def_9 .def_169))) (let ((.def_431 (< .def_430 1))) (let ((.def_432 (not .def_431))) (let ((.def_433 (and .def_117 .def_432))) (let ((.def_434 (not .def_433))) (let ((.def_435 (= .def_202 .def_106))) (let ((.def_436 (= .def_435 .def_434))) (let ((.def_437 (not .def_436))) (let ((.def_438 (and .def_437 .def_429))) (let ((.def_439 (not .def_438))) (let ((.def_440 (+ .def_45 .def_152))) (let ((.def_441 (< .def_440 1))) (let ((.def_442 (+ .def_8 .def_116))) (let ((.def_443 (< .def_442 (- 1)))) (let ((.def_444 (not .def_443))) (let ((.def_445 (or .def_444 .def_441))) (let ((.def_446 (not .def_445))) (let ((.def_447 (< .def_255 1))) (let ((.def_448 (and A9 .def_447))) (let ((.def_449 (not .def_448))) (let ((.def_450 (or .def_449 .def_446))) (let ((.def_451 (< .def_32 1))) (let ((.def_452 (not .def_451))) (let ((.def_453 (and .def_3 .def_452))) (let ((.def_454 (+ .def_62 .def_83))) (let ((.def_455 (< .def_454 (- 1)))) (let ((.def_456 (not .def_455))) (let ((.def_457 (+ .def_72 .def_9))) (let ((.def_458 (< .def_457 (- 1)))) (let ((.def_459 (not .def_458))) (let ((.def_460 (and .def_459 .def_456))) (let ((.def_461 (or .def_460 .def_453))) (let ((.def_462 (or .def_461 .def_450))) (let ((.def_463 (= .def_462 .def_439))) (let ((.def_464 (or .def_463 .def_421))) (let ((.def_465 (not .def_464))) (let ((.def_466 (or .def_465 .def_388))) (let ((.def_467 (+ .def_138 .def_21))) (let ((.def_468 (< .def_467 (- 1)))) (let ((.def_469 (not .def_468))) (let ((.def_470 (or .def_469 A9))) (let ((.def_471 (+ .def_35 .def_0))) (let ((.def_472 (< .def_471 1))) (let ((.def_473 (not .def_472))) (let ((.def_474 (< .def_0 (- 1)))) (let ((.def_475 (or .def_474 .def_473))) (let ((.def_476 (or .def_475 .def_470))) (let ((.def_477 (not .def_476))) (let ((.def_478 (+ .def_138 .def_62))) (let ((.def_479 (< .def_478 1))) (let ((.def_480 (not .def_479))) (let ((.def_481 (= .def_480 .def_61))) (let ((.def_482 (< .def_72 (- 1)))) (let ((.def_483 (not .def_482))) (let ((.def_484 (and .def_483 A9))) (let ((.def_485 (and .def_484 .def_481))) (let ((.def_486 (or .def_485 .def_477))) (let ((.def_487 (< .def_216 1))) (let ((.def_488 (not .def_487))) (let ((.def_489 (< .def_62 (- 1)))) (let ((.def_490 (and .def_489 .def_488))) (let ((.def_491 (or .def_451 .def_121))) (let ((.def_492 (= .def_491 .def_490))) (let ((.def_493 (or .def_489 A8))) (let ((.def_494 (+ .def_8 .def_0))) (let ((.def_495 (< .def_494 (- 1)))) (let ((.def_496 (not .def_495))) (let ((.def_497 (or A8 .def_496))) (let ((.def_498 (or .def_497 .def_493))) (let ((.def_499 (not .def_498))) (let ((.def_500 (or .def_499 .def_492))) (let ((.def_501 (or .def_500 .def_486))) (let ((.def_502 (not .def_501))) (let ((.def_503 (or .def_223 .def_30))) (let ((.def_504 (and A2 A8))) (let ((.def_505 (not .def_504))) (let ((.def_506 (= .def_505 .def_503))) (let ((.def_507 (or A3 A4))) (let ((.def_508 (not .def_507))) (let ((.def_509 (+ .def_169 .def_107))) (let ((.def_510 (< .def_509 1))) (let ((.def_511 (not .def_510))) (let ((.def_512 (< .def_152 1))) (let ((.def_513 (not .def_512))) (let ((.def_514 (and .def_513 .def_511))) (let ((.def_515 (not .def_514))) (let ((.def_516 (= .def_515 .def_508))) (let ((.def_517 (not .def_516))) (let ((.def_518 (= .def_517 .def_506))) (let ((.def_519 (not .def_81))) (let ((.def_520 (and .def_4 .def_519))) (let ((.def_521 (not .def_520))) (let ((.def_522 (+ .def_107 .def_72))) (let ((.def_523 (< .def_522 1))) (let ((.def_524 (or .def_523 .def_121))) (let ((.def_525 (not .def_524))) (let ((.def_526 (or .def_525 .def_521))) (let ((.def_527 (< .def_169 1))) (let ((.def_528 (or .def_468 .def_527))) (let ((.def_529 (not .def_528))) (let ((.def_530 (+ .def_63 .def_72))) (let ((.def_531 (< .def_530 (- 1)))) (let ((.def_532 (or .def_531 A7))) (let ((.def_533 (not .def_532))) (let ((.def_534 (and .def_533 .def_529))) (let ((.def_535 (and .def_534 .def_526))) (let ((.def_536 (or .def_535 .def_518))) (let ((.def_537 (not .def_536))) (let ((.def_538 (or .def_537 .def_502))) (let ((.def_539 (= .def_441 .def_3))) (let ((.def_540 (or A9 .def_61))) (let ((.def_541 (not .def_540))) (let ((.def_542 (or .def_541 .def_539))) (let ((.def_543 (not .def_542))) (let ((.def_544 (not .def_474))) (let ((.def_545 (and .def_544 .def_235))) (let ((.def_546 (not .def_545))) (let ((.def_547 (+ .def_8 .def_138))) (let ((.def_548 (< .def_547 1))) (let ((.def_549 (and .def_548 A1))) (let ((.def_550 (not .def_549))) (let ((.def_551 (and .def_550 .def_546))) (let ((.def_552 (and .def_551 .def_543))) (let ((.def_553 (and A6 A7))) (let ((.def_554 (and .def_483 .def_250))) (let ((.def_555 (and .def_554 .def_553))) (let ((.def_556 (< .def_9 (- 1)))) (let ((.def_557 (and .def_556 A2))) (let ((.def_558 (and .def_101 A6))) (let ((.def_559 (not .def_558))) (let ((.def_560 (and .def_559 .def_557))) (let ((.def_561 (not .def_560))) (let ((.def_562 (or .def_561 .def_555))) (let ((.def_563 (and .def_562 .def_552))) (let ((.def_564 (not .def_563))) (let ((.def_565 (and A0 A2))) (let ((.def_566 (not .def_565))) (let ((.def_567 (and .def_106 .def_287))) (let ((.def_568 (not .def_567))) (let ((.def_569 (or .def_568 .def_566))) (let ((.def_570 (not .def_569))) (let ((.def_571 (+ .def_22 .def_83))) (let ((.def_572 (< .def_571 1))) (let ((.def_573 (and .def_572 A3))) (let ((.def_574 (+ .def_116 .def_107))) (let ((.def_575 (< .def_574 1))) (let ((.def_576 (or .def_575 .def_61))) (let ((.def_577 (not .def_576))) (let ((.def_578 (and .def_577 .def_573))) (let ((.def_579 (= .def_578 .def_570))) (let ((.def_580 (not .def_579))) (let ((.def_581 (and A8 .def_474))) (let ((.def_582 (and .def_96 .def_411))) (let ((.def_583 (and .def_582 .def_581))) (let ((.def_584 (not .def_583))) (let ((.def_585 (or .def_3 .def_101))) (let ((.def_586 (not .def_585))) (let ((.def_587 (or .def_30 A6))) (let ((.def_588 (not .def_587))) (let ((.def_589 (and .def_588 .def_586))) (let ((.def_590 (not .def_589))) (let ((.def_591 (or .def_590 .def_584))) (let ((.def_592 (not .def_591))) (let ((.def_593 (or .def_592 .def_580))) (let ((.def_594 (or .def_593 .def_564))) (let ((.def_595 (or .def_594 .def_538))) (let ((.def_596 (not .def_595))) (let ((.def_597 (or .def_596 .def_466))) (let ((.def_598 (not .def_597))) (let ((.def_599 (and .def_598 .def_322))) (let ((.def_600 (<= x9 1))) (let ((.def_601 (<= 0 x9))) (let ((.def_602 (<= x8 1))) (let ((.def_603 (<= 0 x8))) (let ((.def_604 (<= x7 1))) (let ((.def_605 (<= 0 x7))) (let ((.def_606 (<= x6 1))) (let ((.def_607 (<= 0 x6))) (let ((.def_608 (<= x5 1))) (let ((.def_609 (<= 0 x5))) (let ((.def_610 (<= x4 1))) (let ((.def_611 (<= 0 x4))) (let ((.def_612 (<= x3 1))) (let ((.def_613 (<= 0 x3))) (let ((.def_614 (<= x2 1))) (let ((.def_615 (<= 0 x2))) (let ((.def_616 (<= x1 1))) (let ((.def_617 (<= 0 x1))) (let ((.def_618 (<= x0 1))) (let ((.def_619 (<= 0 x0))) (let ((.def_620 (and .def_619 .def_618 .def_617 .def_616 .def_615 .def_614 .def_613 .def_612 .def_611 .def_610 .def_609 .def_608 .def_607 .def_606 .def_605 .def_604 .def_603 .def_602 .def_601 .def_600 .def_599))) .def_620))))))))))))))))))))))))))))))))))))))))))))))))))))))))))))))))))))))))))))))))))))))))))))))))))))))))))))))))))))))))))))))))))))))))))))))))))))))))))))))))))))))))))))))))))))))))))))))))))))))))))))))))))))))))))))))))))))))))))))))))))))))))))))))))))))))))))))))))))))))))))))))))))))))))))))))))))))))))))))))))))))))))))))))))))))))))))))))))))))))))))))))))))))))))))))))))))))))))))))))))))))))))))))))))))))))))))))))))))))))))))))))))))))))))))))))))))))))))))))))))))))))))))))))))))))))))))))))))))))))))))))))))))))))))))))))))))))))))))))))))))))))))))))))))))))))))))))))))))))))))))))))))))))))))))))))
(check-sat)
